p cnf 7230 15
22 -2021 0
-22 -1860 2020 0
22 1860 2024 0
1860 -2021 0
2019 -2021 0
-1860 -2025 0
-2020 2021 0
-2023 2025 0
-22 -2025 0
2022 -2024 0
-2022 2023 0
2018 -2019 0
1834 -2027 0
27 -2027 0
-2018 2019 0
